s td 39 17 55
b 1 15 19
b 2 44 53
b 3 6 16 45
b 4 6 46 54
b 5 3 7 15 32
b 6 7 36 41 49
b 7 1 2 7 30 33 36 38 42 48 55
b 8 1 4 7 10 15 17 24 30 32 33 36 38 39 42 46 48 55
b 9 1 4 5 7 10 15 17 24 30 32 33 36 39 42 46 48 55
b 10 1 4 5 6 7 10 15 17 24 32 33 36 39 42 46 55
b 11 4 5 6 7 10 15 17 24 32 33 36 39 42 47 55
b 12 4 5 6 7 10 15 24 33 36 39 42 47 49
b 13 4 5 6 10 13 15 24 39 42 47 49
b 14 4 5 6 10 13 15 24 26 39
b 15 4 5 6 10 15 26 34 39
b 16 6 23 26 34 39
b 17 12 23 26 39
b 18 5 6 15 16 33 36 47 55
b 19 1 5 30 37
b 20 1 4 7 10 15 17 24 29 30 32 33 36 38 39 46 48 55
b 21 1 7 11 15 17 29 30 33 38 39 46
b 22 1 7 8 11 17 29 38
b 23 1 4 7 10 14 15 17 24 29 32 33 38 39 46 48 55
b 24 9 10 14 24 55
b 25 1 4 7 10 14 17 28 29 32 33 38 39 46 48 55
b 26 1 4 7 14 28 29 32 33 38 46 51 55
b 27 1 7 14 28 29 32 43 46 51 55
b 28 7 14 28 29 31 43 46 51 55
b 29 14 28 29 31 43 46 50 55
b 30 20 28 29 43 46 50
b 31 7 35 43 46
b 32 7 10 17 21 28 32
b 33 28 33 39 53
b 34 1 22 29 48 55
b 35 4 15 17 24 27 29 30 32 39
b 36 17 25 27 39
b 37 2 7 33 40 42 48 55
b 38 7 18 40 48
b 39 33 40 52 55
1 8
2 33
3 18
4 10
5 8
6 12
7 8
7 37
8 9
8 20
9 10
9 19
10 11
11 12
11 18
12 13
13 14
14 15
15 16
16 17
20 21
20 23
20 34
20 35
21 22
23 24
23 25
25 26
25 32
25 33
26 27
27 28
27 31
28 29
29 30
35 36
37 38
37 39
